54301
38, 44, 19, 49, 54, 47, 30, 4, 18, 12, 42, 33, 1, 27, 31, 25, 11, 45, 52, 15, 36, 46, 39, 16, 2, 14, 9, 34, 53, 10, 22, 29, 21, 23, 17, 48, 26, 55, 28, 6, 3, 43, 13, 51, 40, 7, 37, 20, 50, 24, 35, 5, 41, 32, 8
